\ Model Baseline
\ LP format - for model browsing. Use MPS format to capture full model detail.
Minimize
  obj_ChestXray_Oligaemic
Subject To
 sumToOne_V0: V0_00 + V0_01 + V0_10 + V0_11 = 1
 c_BirthAsphyxia_yes: V0_10 + V0_11 = 0.1
 c_BirthAsphyxia_no: V0_01 + V0_11 = 0.9
 c_aux0: - V0_11 + aux0 = 0
 R4: - aux0 + C5 = 0
 R5: C5 = 0
 c_aux1: - 0.00228 V0_10 + aux1 = 0
 c_aux2: - 0.00228 V0_11 + aux2 = 0
 c_obj_HypDistrib_Equal: - aux1 - aux2 + obj_HypDistrib_Equal = 0
 c_aux3: - 0.00012 V0_10 + aux3 = 0
 c_aux4: - 0.00012 V0_11 + aux4 = 0
 c_obj_HypDistrib_Unequal: - aux3 - aux4 + obj_HypDistrib_Unequal = 0
 c_aux5: - 0.008928 V0_10 + aux5 = 0
 c_aux6: - 0.008928 V0_11 + aux6 = 0
 c_obj_HypoxiaInO2_Mild: - aux5 - aux6 + obj_HypoxiaInO2_Mild = 0
 c_aux7: - 0.00048 V0_10 + aux7 = 0
 c_aux8: - 0.00048 V0_11 + aux8 = 0
 c_obj_HypoxiaInO2_Moderate: - aux7 - aux8 + obj_HypoxiaInO2_Moderate = 0
 c_aux9: - 0.000192 V0_10 + aux9 = 0
 c_aux10: - 0.000192 V0_11 + aux10 = 0
 c_obj_HypoxiaInO2_Severe: - aux9 - aux10 + obj_HypoxiaInO2_Severe = 0
 c_aux11: - 0.096 V0_10 + aux11 = 0
 c_aux12: - 0.096 V0_11 + aux12 = 0
 c_obj_CO2_Normal: - aux11 - aux12 + obj_CO2_Normal = 0
 c_aux13: - 0.012 V0_10 + aux13 = 0
 c_aux14: - 0.012 V0_11 + aux14 = 0
 c_obj_CO2_Low: - aux13 - aux14 + obj_CO2_Low = 0
 c_aux15: - 0.012 V0_10 + aux15 = 0
 c_aux16: - 0.012 V0_11 + aux16 = 0
 c_obj_CO2_High: - aux15 - aux16 + obj_CO2_High = 0
 c_aux17: - 0.00648 V0_10 + aux17 = 0
 c_aux18: - 0.00648 V0_11 + aux18 = 0
 c_obj_ChestXray_Normal: - aux17 - aux18 + obj_ChestXray_Normal = 0
 c_aux19: - 0.000216 V0_10 + aux19 = 0
 c_aux20: - 0.000216 V0_11 + aux20 = 0
 c_obj_ChestXray_Oligaemic: - aux19 - aux20 + obj_ChestXray_Oligaemic = 0
 c_aux21: - 0.000216 V0_10 + aux21 = 0
 c_aux22: - 0.000216 V0_11 + aux22 = 0
 c_obj_ChestXray_Plethoric: - aux21 - aux22 + obj_ChestXray_Plethoric = 0
 c_aux23: - 7.2e-05 V0_10 + aux23 = 0
 c_aux24: - 7.2e-05 V0_11 + aux24 = 0
 c_obj_ChestXray_Grd_Glass: - aux23 - aux24 + obj_ChestXray_Grd_Glass = 0
 c_aux25: - 0.000216 V0_10 + aux25 = 0
 c_aux26: - 0.000216 V0_11 + aux26 = 0
 c_obj_ChestXray_Asy/Patch: - aux25 - aux26 + obj_ChestXray_Asy/Patch = 0
 c_aux27: - 0.00192 V0_10 + aux27 = 0
 c_aux28: - 0.00192 V0_11 + aux28 = 0
 c_obj_Grunting_yes: - aux27 - aux28 + obj_Grunting_yes = 0
 c_aux29: - 0.00768 V0_10 + aux29 = 0
 c_aux30: - 0.00768 V0_11 + aux30 = 0
 c_obj_Grunting_no: - aux29 - aux30 + obj_Grunting_no = 0
 c_aux31: - 0.018 V0_10 + aux31 = 0
 c_aux32: - 0.018 V0_11 + aux32 = 0
 c_obj_LVHreport_yes: - aux31 - aux32 + obj_LVHreport_yes = 0
 c_aux33: - 0.002 V0_10 + aux33 = 0
 c_aux34: - 0.002 V0_11 + aux34 = 0
 c_obj_LVHreport_no: - aux33 - aux34 + obj_LVHreport_no = 0
 c_aux35: - 2.03558e-06 V0_10 + aux35 = 0
 c_aux36: - 2.03558e-06 V0_11 + aux36 = 0
 c_obj_LowerBodyO2_<5: - aux35 - aux36 + obj_LowerBodyO2_<5 = 0
 c_aux37: - 6.10675e-06 V0_10 + aux37 = 0
 c_aux38: - 6.10675e-06 V0_11 + aux38 = 0
 c_obj_LowerBodyO2_5-12: - aux37 - aux38 + obj_LowerBodyO2_5-12 = 0
 c_aux39: - 1.22135e-05 V0_10 + aux39 = 0
 c_aux40: - 1.22135e-05 V0_11 + aux40 = 0
 c_obj_LowerBodyO2_12+: - aux39 - aux40 + obj_LowerBodyO2_12+ = 0
 c_aux41: - 0.0008928 V0_10 + aux41 = 0
 c_aux42: - 0.0008928 V0_11 + aux42 = 0
 c_obj_RUQO2_<5: - aux41 - aux42 + obj_RUQO2_<5 = 0
 c_aux43: - 0.0026784 V0_10 + aux43 = 0
 c_aux44: - 0.0026784 V0_11 + aux44 = 0
 c_obj_RUQO2_5-12: - aux43 - aux44 + obj_RUQO2_5-12 = 0
 c_aux45: - 0.0053568 V0_10 + aux45 = 0
 c_aux46: - 0.0053568 V0_11 + aux46 = 0
 c_obj_RUQO2_12+: - aux45 - aux46 + obj_RUQO2_12+ = 0
 c_aux47: - 0.0864 V0_10 + aux47 = 0
 c_aux48: - 0.0864 V0_11 + aux48 = 0
 c_obj_CO2Report_<7.5: - aux47 - aux48 + obj_CO2Report_<7.5 = 0
 c_aux49: - 0.0096 V0_10 + aux49 = 0
 c_aux50: - 0.0096 V0_11 + aux50 = 0
 c_obj_CO2Report_>=7.5: - aux49 - aux50 + obj_CO2Report_>=7.5 = 0
 c_aux51: - 0.005184 V0_10 + aux51 = 0
 c_aux52: - 0.005184 V0_11 + aux52 = 0
 c_obj_XrayReport_Normal: - aux51 - aux52 + obj_XrayReport_Normal = 0
 c_aux53: - 0.0003888 V0_10 + aux53 = 0
 c_aux54: - 0.0003888 V0_11 + aux54 = 0
 c_obj_XrayReport_Oligaemic: - aux53 - aux54 + obj_XrayReport_Oligaemic
   = 0
 c_aux55: - 0.0003888 V0_10 + aux55 = 0
 c_aux56: - 0.0003888 V0_11 + aux56 = 0
 c_obj_XrayReport_Plethoric: - aux55 - aux56 + obj_XrayReport_Plethoric
   = 0
 c_aux57: - 0.0001296 V0_10 + aux57 = 0
 c_aux58: - 0.0001296 V0_11 + aux58 = 0
 c_obj_XrayReport_Grd_Glass: - aux57 - aux58 + obj_XrayReport_Grd_Glass
   = 0
 c_aux59: - 0.0003888 V0_10 + aux59 = 0
 c_aux60: - 0.0003888 V0_11 + aux60 = 0
 c_obj_XrayReport_Asy/Patchy: - aux59 - aux60 + obj_XrayReport_Asy/Patchy
   = 0
 c_aux61: - 0.2 V0_10 + aux61 = 0
 c_aux62: - 0.2 V0_11 + aux62 = 0
 c_obj_Disease_PFC: - aux61 - aux62 + obj_Disease_PFC = 0
 c_aux63: - 0.3 V0_10 + aux63 = 0
 c_aux64: - 0.3 V0_11 + aux64 = 0
 c_obj_Disease_TGA: - aux63 - aux64 + obj_Disease_TGA = 0
 c_aux65: - 0.25 V0_10 + aux65 = 0
 c_aux66: - 0.25 V0_11 + aux66 = 0
 c_obj_Disease_Fallot: - aux65 - aux66 + obj_Disease_Fallot = 0
 c_aux67: - 0.15 V0_10 + aux67 = 0
 c_aux68: - 0.15 V0_11 + aux68 = 0
 c_obj_Disease_PAIVS: - aux67 - aux68 + obj_Disease_PAIVS = 0
 c_aux69: - 0.05 V0_10 + aux69 = 0
 c_aux70: - 0.05 V0_11 + aux70 = 0
 c_obj_Disease_TAPVD: - aux69 - aux70 + obj_Disease_TAPVD = 0
 c_aux71: - 0.05 V0_10 + aux71 = 0
 c_aux72: - 0.05 V0_11 + aux72 = 0
 c_obj_Disease_Lung: - aux71 - aux72 + obj_Disease_Lung = 0
 c_aux73: - 0.001536 V0_10 + aux73 = 0
 c_aux74: - 0.001536 V0_11 + aux74 = 0
 c_obj_GruntingReport_yes: - aux73 - aux74 + obj_GruntingReport_yes = 0
 c_aux75: - 0.000384 V0_10 + aux75 = 0
 c_aux76: - 0.000384 V0_11 + aux76 = 0
 c_obj_GruntingReport_no: - aux75 - aux76 + obj_GruntingReport_no = 0
 c_aux77: - 0.0152 V0_10 + aux77 = 0
 c_aux78: - 0.0152 V0_11 + aux78 = 0
 c_obj_Age_0-3_days: - aux77 - aux78 + obj_Age_0-3_days = 0
 c_aux79: - 0.00048 V0_10 + aux79 = 0
 c_aux80: - 0.00048 V0_11 + aux80 = 0
 c_obj_Age_4-10_days: - aux79 - aux80 + obj_Age_4-10_days = 0
 c_aux81: - 0.00032 V0_10 + aux81 = 0
 c_aux82: - 0.00032 V0_11 + aux82 = 0
 c_obj_Age_11-30_days: - aux81 - aux82 + obj_Age_11-30_days = 0
 c_aux83: - 0.02 V0_10 + aux83 = 0
 c_aux84: - 0.02 V0_11 + aux84 = 0
 c_obj_LVH_yes: - aux83 - aux84 + obj_LVH_yes = 0
 c_aux85: - 0.18 V0_10 + aux85 = 0
 c_aux86: - 0.18 V0_11 + aux86 = 0
 c_obj_LVH_no: - aux85 - aux86 + obj_LVH_no = 0
 c_aux87: - 0.03 V0_10 + aux87 = 0
 c_aux88: - 0.03 V0_11 + aux88 = 0
 c_obj_DuctFlow_Lt_to_Rt: - aux87 - aux88 + obj_DuctFlow_Lt_to_Rt = 0
 c_aux89: - 0.01 V0_10 + aux89 = 0
 c_aux90: - 0.01 V0_11 + aux90 = 0
 c_obj_DuctFlow_None: - aux89 - aux90 + obj_DuctFlow_None = 0
 c_aux91: - 0.16 V0_10 + aux91 = 0
 c_aux92: - 0.16 V0_11 + aux92 = 0
 c_obj_DuctFlow_Rt_to_Lt: - aux91 - aux92 + obj_DuctFlow_Rt_to_Lt = 0
 c_aux93: - 0.08 V0_10 + aux93 = 0
 c_aux94: - 0.08 V0_11 + aux94 = 0
 c_obj_CardiacMixing_None: - aux93 - aux94 + obj_CardiacMixing_None = 0
 c_aux95: - 0.086 V0_10 + aux95 = 0
 c_aux96: - 0.086 V0_11 + aux96 = 0
 c_obj_CardiacMixing_Mild: - aux95 - aux96 + obj_CardiacMixing_Mild = 0
 c_aux97: - 0.03 V0_10 + aux97 = 0
 c_aux98: - 0.03 V0_11 + aux98 = 0
 c_obj_CardiacMixing_Complete: - aux97 - aux98 + obj_CardiacMixing_Complete
   = 0
 c_aux99: - 0.004 V0_10 + aux99 = 0
 c_aux100: - 0.004 V0_11 + aux100 = 0
 c_obj_CardiacMixing_Transp.: - aux99 - aux100 + obj_CardiacMixing_Transp.
   = 0
 c_aux101: - 0.12 V0_10 + aux101 = 0
 c_aux102: - 0.12 V0_11 + aux102 = 0
 c_obj_LungParench_Normal: - aux101 - aux102 + obj_LungParench_Normal = 0
 c_aux103: - 0.02 V0_10 + aux103 = 0
 c_aux104: - 0.02 V0_11 + aux104 = 0
 c_obj_LungParench_Congested: - aux103 - aux104 + obj_LungParench_Congested
   = 0
 c_aux105: - 0.06 V0_10 + aux105 = 0
 c_aux106: - 0.06 V0_11 + aux106 = 0
 c_obj_LungParench_Abnormal: - aux105 - aux106 + obj_LungParench_Abnormal
   = 0
 c_aux107: - 0.06 V0_10 + aux107 = 0
 c_aux108: - 0.06 V0_11 + aux108 = 0
 c_obj_LungFlow_Normal: - aux107 - aux108 + obj_LungFlow_Normal = 0
 c_aux109: - 0.13 V0_10 + aux109 = 0
 c_aux110: - 0.13 V0_11 + aux110 = 0
 c_obj_LungFlow_Low: - aux109 - aux110 + obj_LungFlow_Low = 0
 c_aux111: - 0.01 V0_10 + aux111 = 0
 c_aux112: - 0.01 V0_11 + aux112 = 0
 c_obj_LungFlow_High: - aux111 - aux112 + obj_LungFlow_High = 0
 c_aux113: - 0.08 V0_10 + aux113 = 0
 c_aux114: - 0.08 V0_11 + aux114 = 0
 c_obj_Sick_yes: - aux113 - aux114 + obj_Sick_yes = 0
 c_aux115: - 0.12 V0_10 + aux115 = 0
 c_aux116: - 0.12 V0_11 + aux116 = 0
 c_obj_Sick_no: - aux115 - aux116 + obj_Sick_no = 0
Bounds
 V0_00 <= 1
 V0_01 <= 1
 V0_10 <= 1
 V0_11 <= 1
 aux0 <= 1
 C5 <= 1
 aux1 <= 1
 aux2 <= 1
 obj_HypDistrib_Equal <= 1
 aux3 <= 1
 aux4 <= 1
 obj_HypDistrib_Unequal <= 1
 aux5 <= 1
 aux6 <= 1
 obj_HypoxiaInO2_Mild <= 1
 aux7 <= 1
 aux8 <= 1
 obj_HypoxiaInO2_Moderate <= 1
 aux9 <= 1
 aux10 <= 1
 obj_HypoxiaInO2_Severe <= 1
 aux11 <= 1
 aux12 <= 1
 obj_CO2_Normal <= 1
 aux13 <= 1
 aux14 <= 1
 obj_CO2_Low <= 1
 aux15 <= 1
 aux16 <= 1
 obj_CO2_High <= 1
 aux17 <= 1
 aux18 <= 1
 obj_ChestXray_Normal <= 1
 aux19 <= 1
 aux20 <= 1
 obj_ChestXray_Oligaemic <= 1
 aux21 <= 1
 aux22 <= 1
 obj_ChestXray_Plethoric <= 1
 aux23 <= 1
 aux24 <= 1
 obj_ChestXray_Grd_Glass <= 1
 aux25 <= 1
 aux26 <= 1
 obj_ChestXray_Asy/Patch <= 1
 aux27 <= 1
 aux28 <= 1
 obj_Grunting_yes <= 1
 aux29 <= 1
 aux30 <= 1
 obj_Grunting_no <= 1
 aux31 <= 1
 aux32 <= 1
 obj_LVHreport_yes <= 1
 aux33 <= 1
 aux34 <= 1
 obj_LVHreport_no <= 1
 aux35 <= 1
 aux36 <= 1
 obj_LowerBodyO2_<5 <= 1
 aux37 <= 1
 aux38 <= 1
 obj_LowerBodyO2_5-12 <= 1
 aux39 <= 1
 aux40 <= 1
 obj_LowerBodyO2_12+ <= 1
 aux41 <= 1
 aux42 <= 1
 obj_RUQO2_<5 <= 1
 aux43 <= 1
 aux44 <= 1
 obj_RUQO2_5-12 <= 1
 aux45 <= 1
 aux46 <= 1
 obj_RUQO2_12+ <= 1
 aux47 <= 1
 aux48 <= 1
 obj_CO2Report_<7.5 <= 1
 aux49 <= 1
 aux50 <= 1
 obj_CO2Report_>=7.5 <= 1
 aux51 <= 1
 aux52 <= 1
 obj_XrayReport_Normal <= 1
 aux53 <= 1
 aux54 <= 1
 obj_XrayReport_Oligaemic <= 1
 aux55 <= 1
 aux56 <= 1
 obj_XrayReport_Plethoric <= 1
 aux57 <= 1
 aux58 <= 1
 obj_XrayReport_Grd_Glass <= 1
 aux59 <= 1
 aux60 <= 1
 obj_XrayReport_Asy/Patchy <= 1
 aux61 <= 1
 aux62 <= 1
 obj_Disease_PFC <= 1
 aux63 <= 1
 aux64 <= 1
 obj_Disease_TGA <= 1
 aux65 <= 1
 aux66 <= 1
 obj_Disease_Fallot <= 1
 aux67 <= 1
 aux68 <= 1
 obj_Disease_PAIVS <= 1
 aux69 <= 1
 aux70 <= 1
 obj_Disease_TAPVD <= 1
 aux71 <= 1
 aux72 <= 1
 obj_Disease_Lung <= 1
 aux73 <= 1
 aux74 <= 1
 obj_GruntingReport_yes <= 1
 aux75 <= 1
 aux76 <= 1
 obj_GruntingReport_no <= 1
 aux77 <= 1
 aux78 <= 1
 obj_Age_0-3_days <= 1
 aux79 <= 1
 aux80 <= 1
 obj_Age_4-10_days <= 1
 aux81 <= 1
 aux82 <= 1
 obj_Age_11-30_days <= 1
 aux83 <= 1
 aux84 <= 1
 obj_LVH_yes <= 1
 aux85 <= 1
 aux86 <= 1
 obj_LVH_no <= 1
 aux87 <= 1
 aux88 <= 1
 obj_DuctFlow_Lt_to_Rt <= 1
 aux89 <= 1
 aux90 <= 1
 obj_DuctFlow_None <= 1
 aux91 <= 1
 aux92 <= 1
 obj_DuctFlow_Rt_to_Lt <= 1
 aux93 <= 1
 aux94 <= 1
 obj_CardiacMixing_None <= 1
 aux95 <= 1
 aux96 <= 1
 obj_CardiacMixing_Mild <= 1
 aux97 <= 1
 aux98 <= 1
 obj_CardiacMixing_Complete <= 1
 aux99 <= 1
 aux100 <= 1
 obj_CardiacMixing_Transp. <= 1
 aux101 <= 1
 aux102 <= 1
 obj_LungParench_Normal <= 1
 aux103 <= 1
 aux104 <= 1
 obj_LungParench_Congested <= 1
 aux105 <= 1
 aux106 <= 1
 obj_LungParench_Abnormal <= 1
 aux107 <= 1
 aux108 <= 1
 obj_LungFlow_Normal <= 1
 aux109 <= 1
 aux110 <= 1
 obj_LungFlow_Low <= 1
 aux111 <= 1
 aux112 <= 1
 obj_LungFlow_High <= 1
 aux113 <= 1
 aux114 <= 1
 obj_Sick_yes <= 1
 aux115 <= 1
 aux116 <= 1
 obj_Sick_no <= 1
End
